
Gurobi 7.0.2 (linux64) logging started Sun May 29 11:59:23 2022


Gurobi 7.0.2 (linux64) logging started Sun May 29 12:00:08 2022


Gurobi 7.0.2 (linux64) logging started Sun May 29 12:00:16 2022


Gurobi 7.0.2 (linux64) logging started Sun May 29 12:00:22 2022

